
n_res = 6;
rcap = [62, 57, 61, 62, 701, 671];
rtype = [1, 1, 1, 1, 2, 2];
n_tasks = 50;
modes =  [{1, 2, 3}, {4, 5, 6}, {7, 8, 9}, {10, 11, 12}, {13, 14, 15}, {16, 17, 18}, {19, 20, 21}, {22, 23, 24}, {25, 26, 27}, {28, 29, 30}, {31, 32, 33}, {34, 35, 36}, {37, 38, 39}, {40, 41, 42}, {43, 44, 45}, {46, 47, 48}, {49, 50, 51}, {52, 53, 54}, {55, 56, 57}, {58, 59, 60}, {61, 62, 63}, {64, 65, 66}, {67, 68, 69}, {70, 71, 72}, {73, 74, 75}, {76, 77, 78}, {79, 80, 81}, {82, 83, 84}, {85, 86, 87}, {88, 89, 90}, {91, 92, 93}, {94, 95, 96}, {97, 98, 99}, {100, 101, 102}, {103, 104, 105}, {106, 107, 108}, {109, 110, 111}, {112, 113, 114}, {115, 116, 117}, {118, 119, 120}, {121, 122, 123}, {124, 125, 126}, {127, 128, 129}, {130, 131, 132}, {133, 134, 135}, {136, 137, 138}, {139, 140, 141}, {142, 143, 144}, {145, 146, 147}, {148, 149, 150}];
succ =  [{18, 15, 13, 12, 11, 10, 9}, {18, 13, 11, 10, 9}, {15, 13, 10, 6}, {19, 18, 15, 13, 11}, {15, 10, 6}, {30, 27, 22, 21, 19, 18, 16, 14}, {30, 22, 19, 18, 16, 15, 14}, {18, 15, 11}, {30, 27, 22, 20, 19, 17, 16}, {30, 22, 20, 19, 17, 16}, {30, 27, 25, 22, 14}, {27, 23, 22, 21, 20, 19, 17}, {22, 21, 17, 16}, {23, 20, 17}, {21, 17}, {29, 26, 25, 23}, {34, 29, 26, 24}, {24, 20}, {34, 29, 28, 24}, {34, 31, 29, 28}, {34, 31, 29, 28}, {31, 29, 28}, {31, 28}, {38, 32, 31}, {34, 32, 31}, {39, 28}, {39, 28}, {43, 38, 35, 32}, {43, 38, 35, 32}, {39, 38, 32}, {43, 41, 39, 35}, {36, 33}, {50, 42, 41, 40, 37}, {40, 37, 36}, {50, 42, 40, 37}, {50, 49, 46, 45, 42}, {49, 46, 45, 44}, {48, 46, 45, 44}, {48, 45, 44}, {48, 44}, {48, 47}, {44}, {44}, {47}, {47}, {47}, {}, {}, {}, {}];
n_opt = 150;
dur = [3, 23, 28, 2, 12, 30, 1, 7, 27, 6, 18, 29, 4, 9, 23, 8, 12, 28, 5, 8, 10, 1, 5, 11, 6, 12, 18, 6, 11, 28, 1, 12, 16, 1, 4, 18, 6, 27, 29, 11, 12, 13, 7, 16, 21, 14, 24, 29, 8, 13, 14, 24, 25, 28, 12, 14, 28, 2, 6, 30, 6, 26, 28, 10, 27, 29, 10, 13, 24, 23, 24, 30, 2, 17, 19, 7, 16, 19, 2, 8, 11, 5, 6, 13, 4, 23, 24, 18, 21, 26, 1, 2, 25, 3, 14, 20, 4, 7, 28, 13, 23, 26, 2, 13, 15, 19, 26, 27, 5, 19, 21, 20, 21, 28, 2, 3, 29, 4, 6, 8, 2, 19, 22, 2, 15, 21, 7, 25, 28, 13, 21, 23, 4, 6, 16, 5, 7, 13, 3, 9, 13, 12, 17, 18, 1, 8, 9, 2, 19, 24];
rreq = [|19, 13, 6, 18, 17, 17, 22, 20, 9, 5, 3, 3, 22, 16, 6, 18, 11, 4, 4, 4, 4, 22, 22, 21, 30, 29, 28, 22, 18, 12, 22, 21, 9, 28, 27, 27, 17, 10, 4, 17, 17, 17, 17, 15, 7, 13, 11, 8, 16, 14, 14, 18, 16, 11, 27, 24, 22, 23, 19, 10, 9, 7, 2, 16, 13, 11, 5, 4, 3, 20, 19, 19, 26, 20, 17, 24, 23, 23, 23, 19, 17, 24, 17, 15, 16, 12, 12, 29, 23, 23, 25, 19, 12, 23, 19, 17, 20, 19, 18, 27, 17, 11, 19, 15, 8, 17, 14, 12, 21, 20, 18, 25, 18, 16, 16, 16, 11, 19, 17, 17, 8, 8, 4, 23, 13, 10, 24, 15, 9, 17, 16, 15, 9, 9, 9, 21, 17, 15, 14, 13, 10, 26, 21, 18, 25, 22, 20, 26, 21, 15
 |20, 20, 20, 29, 25, 23, 19, 15, 11, 23, 13, 9, 20, 14, 9, 15, 14, 10, 15, 13, 11, 14, 13, 2, 27, 24, 19, 20, 11, 9, 11, 8, 6, 16, 11, 4, 22, 19, 16, 15, 11, 11, 21, 18, 16, 9, 8, 6, 30, 29, 28, 18, 16, 15, 18, 14, 11, 18, 11, 7, 28, 19, 15, 10, 9, 7, 18, 18, 11, 23, 20, 20, 26, 22, 21, 13, 11, 9, 20, 20, 20, 14, 11, 7, 27, 20, 17, 23, 15, 11, 9, 9, 8, 11, 5, 5, 17, 14, 8, 13, 13, 13, 21, 18, 11, 22, 18, 8, 19, 13, 9, 24, 19, 17, 23, 21, 20, 26, 25, 22, 15, 8, 7, 13, 11, 7, 25, 25, 23, 22, 19, 17, 18, 14, 13, 25, 25, 25, 28, 26, 25, 12, 12, 12, 11, 11, 9, 26, 23, 19
 |25, 24, 17, 16, 13, 5, 22, 18, 13, 26, 22, 22, 24, 23, 23, 15, 7, 4, 9, 7, 4, 10, 7, 5, 11, 10, 1, 17, 8, 7, 24, 16, 7, 11, 9, 8, 27, 22, 19, 8, 8, 7, 21, 16, 13, 21, 18, 12, 14, 12, 6, 17, 13, 13, 15, 14, 14, 14, 8, 6, 5, 3, 3, 25, 15, 10, 23, 21, 20, 13, 8, 3, 27, 12, 10, 29, 22, 21, 27, 21, 15, 24, 22, 13, 16, 15, 9, 26, 25, 25, 24, 22, 15, 17, 8, 8, 23, 23, 19, 29, 29, 29, 16, 13, 8, 27, 27, 27, 16, 13, 9, 9, 9, 8, 18, 9, 6, 26, 19, 12, 11, 5, 3, 23, 12, 2, 28, 20, 20, 11, 11, 11, 22, 22, 22, 14, 9, 6, 15, 10, 5, 12, 9, 8, 12, 8, 1, 20, 15, 13
 |14, 12, 6, 11, 9, 6, 10, 8, 3, 18, 18, 17, 25, 23, 22, 5, 3, 1, 15, 14, 14, 4, 4, 4, 24, 19, 12, 17, 16, 14, 23, 13, 11, 19, 16, 14, 7, 3, 2, 29, 23, 17, 3, 2, 2, 21, 18, 17, 15, 12, 8, 6, 5, 3, 28, 25, 25, 11, 11, 11, 21, 19, 14, 25, 23, 19, 10, 8, 5, 21, 15, 6, 27, 21, 14, 26, 17, 6, 28, 26, 25, 22, 17, 7, 21, 20, 19, 3, 3, 3, 16, 8, 6, 24, 21, 20, 26, 25, 25, 9, 8, 8, 27, 19, 11, 14, 13, 13, 9, 7, 5, 21, 17, 10, 14, 12, 12, 25, 21, 14, 14, 9, 6, 23, 16, 11, 26, 23, 21, 22, 20, 18, 9, 6, 2, 3, 3, 3, 22, 21, 21, 8, 7, 6, 18, 17, 16, 17, 13, 13
 |19, 15, 8, 16, 11, 1, 22, 19, 13, 9, 9, 8, 6, 5, 3, 29, 13, 9, 19, 18, 14, 29, 28, 25, 20, 20, 17, 25, 23, 16, 16, 11, 9, 21, 10, 5, 28, 26, 26, 12, 5, 1, 8, 4, 2, 19, 13, 11, 26, 18, 10, 6, 5, 4, 22, 20, 18, 18, 15, 14, 18, 18, 18, 4, 4, 4, 19, 12, 9, 26, 16, 7, 12, 9, 5, 14, 10, 10, 25, 19, 12, 26, 25, 25, 10, 8, 7, 9, 8, 3, 19, 13, 7, 12, 10, 10, 21, 18, 15, 18, 14, 11, 15, 13, 12, 20, 16, 14, 22, 21, 19, 22, 19, 18, 12, 12, 8, 13, 8, 4, 12, 9, 7, 22, 21, 18, 22, 16, 10, 22, 17, 15, 17, 12, 7, 15, 8, 6, 12, 8, 5, 11, 11, 6, 20, 16, 7, 19, 17, 10
 |15, 10, 5, 24, 22, 20, 12, 8, 3, 15, 13, 10, 13, 11, 11, 19, 16, 15, 14, 10, 5, 20, 17, 15, 15, 9, 6, 16, 14, 11, 17, 13, 12, 23, 11, 10, 1, 1, 1, 16, 15, 9, 11, 8, 4, 16, 10, 5, 10, 9, 9, 27, 27, 24, 10, 10, 10, 14, 11, 10, 10, 8, 6, 10, 8, 5, 27, 26, 26, 19, 14, 4, 27, 22, 19, 21, 19, 17, 19, 10, 7, 30, 29, 28, 20, 19, 9, 25, 18, 3, 12, 9, 8, 10, 9, 9, 29, 22, 19, 28, 20, 10, 23, 19, 16, 22, 18, 7, 17, 17, 17, 17, 14, 10, 13, 11, 11, 12, 12, 10, 15, 13, 12, 5, 4, 2, 7, 5, 4, 11, 5, 2, 16, 16, 9, 12, 9, 6, 11, 11, 7, 28, 23, 18, 13, 13, 12, 16, 8, 1|];